maximize
obj: 1.0412197189588441 x_1,1__out + 2.0824394379176883 x_1,2__out + 4.1648788758353765 x_1,3__out + 8.329757751670753 x_1,4__out + 16.659515503341506 x_1,5__out + 33.31903100668301 x_1,6__out + 66.63806201336602 x_1,7__out + 133.27612402673205 x_1,8__out + 1.0329526465803447 x_2,1__out + 2.0659052931606894 x_2,2__out + 4.131810586321379 x_2,3__out + 8.263621172642758 x_2,4__out + 16.527242345285515 x_2,5__out + 33.05448469057103 x_2,6__out + 66.10896938114206 x_2,7__out + 132.21793876228412 x_2,8__out + 0.978412904655095 x_3,1__out + 1.95682580931019 x_3,2__out + 3.91365161862038 x_3,3__out + 7.82730323724076 x_3,4__out + 15.65460647448152 x_3,5__out + 31.30921294896304 x_3,6__out + 62.61842589792608 x_3,7__out + 125.23685179585216 x_3,8__out + 1.0146409923001383 x_4,1__out + 2.0292819846002765 x_4,2__out + 4.058563969200553 x_4,3__out + 8.117127938401106 x_4,4__out + 16.234255876802212 x_4,5__out + 32.468511753604425 x_4,6__out + 64.93702350720885 x_4,7__out + 129.8740470144177 x_4,8__out + 0.9413441591379625 x_5,1__out + 1.882688318275925 x_5,2__out + 3.76537663655185 x_5,3__out + 7.5307532731037 x_5,4__out + 15.0615065462074 x_5,5__out + 30.1230130924148 x_5,6__out + 60.2460261848296 x_5,7__out + 120.4920523696592 x_5,8__out + 0.989778945784194 x_6,1__out + 1.979557891568388 x_6,2__out + 3.959115783136776 x_6,3__out + 7.918231566273552 x_6,4__out + 15.836463132547104 x_6,5__out + 31.67292626509421 x_6,6__out + 63.34585253018842 x_6,7__out + 126.69170506037683 x_6,8__out + 1.006203674275401 x_7,1__out + 2.012407348550802 x_7,2__out + 4.024814697101604 x_7,3__out + 8.049629394203208 x_7,4__out + 16.099258788406416 x_7,5__out + 32.19851757681283 x_7,6__out + 64.39703515362567 x_7,7__out + 128.79407030725133 x_7,8__out + 1.0300188003356072 x_8,1__out + 2.0600376006712144 x_8,2__out + 4.120075201342429 x_8,3__out + 8.240150402684858 x_8,4__out + 16.480300805369716 x_8,5__out + 32.96060161073943 x_8,6__out + 65.92120322147886 x_8,7__out + 131.84240644295772 x_8,8__out + 1.0230769106814455 x_9,1__out + 2.046153821362891 x_9,2__out + 4.092307642725782 x_9,3__out + 8.184615285451564 x_9,4__out + 16.369230570903127 x_9,5__out + 32.738461141806255 x_9,6__out + 65.47692228361251 x_9,7__out + 130.95384456722502 x_9,8__out + 1.0026207668852611 x_10,1__out + 2.0052415337705223 x_10,2__out + 4.0104830675410446 x_10,3__out + 8.020966135082089 x_10,4__out + 16.041932270164178 x_10,5__out + 32.083864540328356 x_10,6__out + 64.16772908065671 x_10,7__out + 128.33545816131343 x_10,8__out + 1.0005 x_11,1__out + 2.001 x_11,2__out + 4.002 x_11,3__out + 8.004 x_11,4__out + 16.008 x_11,5__out + 32.016 x_11,6__out + 64.032 x_11,7__out + 128.064 x_11,8__out + 1 x109
subject to
selffin: -1.0005 x_11,1__in - 2.001 x_11,2__in - 4.002 x_11,3__in - 8.004 x_11,4__in - 16.008 x_11,5__in - 32.016 x_11,6__in - 64.032 x_11,7__in - 128.064 x_11,8__in + 1.001 b_1_ + 1.001 b_2_ + 1.001 b_3_ + 1.001 b_4_ + 1.001 b_5_ + 1.001 b_6_ + 1.001 b_7_ + 1.001 b_8_ + 1.001 b_9_ + 1.001 b_10_ - 0.999 s_1_ - 0.999 s_2_ - 0.999 s_3_ - 0.999 s_4_ - 0.999 s_5_ - 0.999 s_6_ - 0.999 s_7_ - 0.999 s_8_ - 0.999 s_9_ - 0.999 s_10_ + 1 x_11,1__out + 2 x_11,2__out + 4 x_11,3__out + 8 x_11,4__out + 16 x_11,5__out + 32 x_11,6__out + 64 x_11,7__out + 128 x_11,8__out = 0
flow_1_: 1.0661971402456043 x_1,1__in + 2.1323942804912086 x_1,2__in + 4.264788560982417 x_1,3__in + 8.529577121964834 x_1,4__in + 17.05915424392967 x_1,5__in + 34.11830848785934 x_1,6__in + 68.23661697571868 x_1,7__in + 136.47323395143735 x_1,8__in - 1 b_1_ + 1 s_1_ + 1 x_1,1__out + 2 x_1,2__out + 4 x_1,3__out + 8 x_1,4__out + 16 x_1,5__out + 32 x_1,6__out + 64 x_1,7__out + 128 x_1,8__out = 0
flow_2_: 1.0223858116734625 x_2,1__in + 2.044771623346925 x_2,2__in + 4.08954324669385 x_2,3__in + 8.1790864933877 x_2,4__in + 16.3581729867754 x_2,5__in + 32.7163459735508 x_2,6__in + 65.4326919471016 x_2,7__in + 130.8653838942032 x_2,8__in - 1 b_2_ + 1 s_2_ + 1 x_2,1__out + 2 x_2,2__out + 4 x_2,3__out + 8 x_2,4__out + 16 x_2,5__out + 32 x_2,6__out + 64 x_2,7__out + 128 x_2,8__out = 0
flow_3_: 1.0209656688313635 x_3,1__in + 2.041931337662727 x_3,2__in + 4.083862675325454 x_3,3__in + 8.167725350650908 x_3,4__in + 16.335450701301816 x_3,5__in + 32.67090140260363 x_3,6__in + 65.34180280520727 x_3,7__in + 130.68360561041453 x_3,8__in - 1 b_3_ + 1 s_3_ + 1 x_3,1__out + 2 x_3,2__out + 4 x_3,3__out + 8 x_3,4__out + 16 x_3,5__out + 32 x_3,6__out + 64 x_3,7__out + 128 x_3,8__out = 0
flow_4_: 1.0400392095647903 x_4,1__in + 2.0800784191295807 x_4,2__in + 4.160156838259161 x_4,3__in + 8.320313676518323 x_4,4__in + 16.640627353036646 x_4,5__in + 33.28125470607329 x_4,6__in + 66.56250941214658 x_4,7__in + 133.12501882429316 x_4,8__in - 1 b_4_ + 1 s_4_ + 1 x_4,1__out + 2 x_4,2__out + 4 x_4,3__out + 8 x_4,4__out + 16 x_4,5__out + 32 x_4,6__out + 64 x_4,7__out + 128 x_4,8__out = 0
flow_5_: 1.0385697976450958 x_5,1__in + 2.0771395952901917 x_5,2__in + 4.154279190580383 x_5,3__in + 8.308558381160767 x_5,4__in + 16.617116762321533 x_5,5__in + 33.23423352464307 x_5,6__in + 66.46846704928613 x_5,7__in + 132.93693409857227 x_5,8__in - 1 b_5_ + 1 s_5_ + 1 x_5,1__out + 2 x_5,2__out + 4 x_5,3__out + 8 x_5,4__out + 16 x_5,5__out + 32 x_5,6__out + 64 x_5,7__out + 128 x_5,8__out = 0
flow_6_: 1.0008957911010958 x_6,1__in + 2.0017915822021917 x_6,2__in + 4.003583164404383 x_6,3__in + 8.007166328808767 x_6,4__in + 16.014332657617533 x_6,5__in + 32.02866531523507 x_6,6__in + 64.05733063047013 x_6,7__in + 128.11466126094027 x_6,8__in - 1 b_6_ + 1 s_6_ + 1 x_6,1__out + 2 x_6,2__out + 4 x_6,3__out + 8 x_6,4__out + 16 x_6,5__out + 32 x_6,6__out + 64 x_6,7__out + 128 x_6,8__out = 0
flow_7_: 1.002985808237147 x_7,1__in + 2.005971616474294 x_7,2__in + 4.011943232948588 x_7,3__in + 8.023886465897176 x_7,4__in + 16.047772931794352 x_7,5__in + 32.095545863588704 x_7,6__in + 64.19109172717741 x_7,7__in + 128.38218345435482 x_7,8__in - 1 b_7_ + 1 s_7_ + 1 x_7,1__out + 2 x_7,2__out + 4 x_7,3__out + 8 x_7,4__out + 16 x_7,5__out + 32 x_7,6__out + 64 x_7,7__out + 128 x_7,8__out = 0
flow_8_: 1.0094778780076064 x_8,1__in + 2.0189557560152127 x_8,2__in + 4.037911512030425 x_8,3__in + 8.07582302406085 x_8,4__in + 16.1516460481217 x_8,5__in + 32.3032920962434 x_8,6__in + 64.6065841924868 x_8,7__in + 129.2131683849736 x_8,8__in - 1 b_8_ + 1 s_8_ + 1 x_8,1__out + 2 x_8,2__out + 4 x_8,3__out + 8 x_8,4__out + 16 x_8,5__out + 32 x_8,6__out + 64 x_8,7__out + 128 x_8,8__out = 0
flow_9_: 1.0264363827752125 x_9,1__in + 2.052872765550425 x_9,2__in + 4.10574553110085 x_9,3__in + 8.2114910622017 x_9,4__in + 16.4229821244034 x_9,5__in + 32.8459642488068 x_9,6__in + 65.6919284976136 x_9,7__in + 131.3838569952272 x_9,8__in - 1 b_9_ + 1 s_9_ + 1 x_9,1__out + 2 x_9,2__out + 4 x_9,3__out + 8 x_9,4__out + 16 x_9,5__out + 32 x_9,6__out + 64 x_9,7__out + 128 x_9,8__out = 0
flow_10_: 1.048421721890397 x_10,1__in + 2.096843443780794 x_10,2__in + 4.193686887561588 x_10,3__in + 8.387373775123177 x_10,4__in + 16.774747550246353 x_10,5__in + 33.549495100492706 x_10,6__in + 67.09899020098541 x_10,7__in + 134.19798040197082 x_10,8__in - 1 b_10_ + 1 s_10_ + 1 x_10,1__out + 2 x_10,2__out + 4 x_10,3__out + 8 x_10,4__out + 16 x_10,5__out + 32 x_10,6__out + 64 x_10,7__out + 128 x_10,8__out = 0
Bounds
x109 <= 0
b_1_ >= 0
b_2_ >= 0
b_3_ >= 0
b_4_ >= 0
b_5_ >= 0
b_6_ >= 0
b_7_ >= 0
b_8_ >= 0
b_9_ >= 0
b_10_ >= 0
s_1_ >= 0
s_2_ >= 0
s_3_ >= 0
s_4_ >= 0
s_5_ >= 0
s_6_ >= 0
s_7_ >= 0
s_8_ >= 0
s_9_ >= 0
s_10_ >= 0
x109 >= 0
x_1,1__in = 0
x_2,1__in = 0
x_3,1__in = 0
x_4,1__in = 0
x_5,1__in = 0
x_6,1__in = 0
x_7,1__in = 0
x_8,1__in = 0
x_9,1__in = 0
x_10,1__in = 0
x_11,1__in = 0
x_1,2__in = 0
x_2,2__in = 0
x_3,2__in = 0
x_4,2__in = 0
x_5,2__in = 0
x_6,2__in = 0
x_7,2__in = 0
x_8,2__in = 0
x_9,2__in = 0
x_10,2__in = 0
x_11,2__in = 0
x_1,3__in = 0
x_2,3__in = 0
x_3,3__in = 0
x_4,3__in = 0
x_5,3__in = 0
x_6,3__in = 0
x_7,3__in = 0
x_8,3__in = 0
x_9,3__in = 0
x_10,3__in = 0
x_11,3__in = 1
x_1,4__in = 0
x_2,4__in = 0
x_3,4__in = 0
x_4,4__in = 0
x_5,4__in = 0
x_6,4__in = 0
x_7,4__in = 0
x_8,4__in = 0
x_9,4__in = 0
x_10,4__in = 0
x_11,4__in = 0
x_1,5__in = 0
x_2,5__in = 0
x_3,5__in = 0
x_4,5__in = 0
x_5,5__in = 0
x_6,5__in = 0
x_7,5__in = 0
x_8,5__in = 0
x_9,5__in = 0
x_10,5__in = 0
x_11,5__in = 0
x_1,6__in = 0
x_2,6__in = 0
x_3,6__in = 0
x_4,6__in = 0
x_5,6__in = 0
x_6,6__in = 0
x_7,6__in = 0
x_8,6__in = 0
x_9,6__in = 0
x_10,6__in = 0
x_11,6__in = 1
x_1,7__in = 0
x_2,7__in = 0
x_3,7__in = 0
x_4,7__in = 0
x_5,7__in = 0
x_6,7__in = 0
x_7,7__in = 0
x_8,7__in = 0
x_9,7__in = 0
x_10,7__in = 0
x_11,7__in = 1
x_1,8__in = 0
x_2,8__in = 0
x_3,8__in = 0
x_4,8__in = 0
x_5,8__in = 0
x_6,8__in = 0
x_7,8__in = 0
x_8,8__in = 0
x_9,8__in = 0
x_10,8__in = 0
x_11,8__in = 0
Binary
x_1,1__out
x_2,1__out
x_3,1__out
x_4,1__out
x_5,1__out
x_6,1__out
x_7,1__out
x_8,1__out
x_9,1__out
x_10,1__out
x_11,1__out
x_1,2__out
x_2,2__out
x_3,2__out
x_4,2__out
x_5,2__out
x_6,2__out
x_7,2__out
x_8,2__out
x_9,2__out
x_10,2__out
x_11,2__out
x_1,3__out
x_2,3__out
x_3,3__out
x_4,3__out
x_5,3__out
x_6,3__out
x_7,3__out
x_8,3__out
x_9,3__out
x_10,3__out
x_11,3__out
x_1,4__out
x_2,4__out
x_3,4__out
x_4,4__out
x_5,4__out
x_6,4__out
x_7,4__out
x_8,4__out
x_9,4__out
x_10,4__out
x_11,4__out
x_1,5__out
x_2,5__out
x_3,5__out
x_4,5__out
x_5,5__out
x_6,5__out
x_7,5__out
x_8,5__out
x_9,5__out
x_10,5__out
x_11,5__out
x_1,6__out
x_2,6__out
x_3,6__out
x_4,6__out
x_5,6__out
x_6,6__out
x_7,6__out
x_8,6__out
x_9,6__out
x_10,6__out
x_11,6__out
x_1,7__out
x_2,7__out
x_3,7__out
x_4,7__out
x_5,7__out
x_6,7__out
x_7,7__out
x_8,7__out
x_9,7__out
x_10,7__out
x_11,7__out
x_1,8__out
x_2,8__out
x_3,8__out
x_4,8__out
x_5,8__out
x_6,8__out
x_7,8__out
x_8,8__out
x_9,8__out
x_10,8__out
x_11,8__out
End